NAME : netgen22-2_25
COMMENT : Generated using the function generateClusteredNetwork from the R-package netgen (Bossek,2015) - Number of clusters: 2
TYPE : TSP
DIMENSION : 22
EDGE_WEIGHT_TYPE : EUC_2D
NODE_COORD_SECTION
1 52.7487947967 29.2031115454
2 57.5721259196 25.0001056942
3 59.8763712208 34.9833056095
4 55.4768140137 25.1719948185
5 53.0677806942 32.7201594387
6 51.9288867815 28.9726651219
7 48.5593210151 29.8398931415
8 54.2847331162 24.3415112798
9 52.196705703 35.2558914118
10 52.8145445763 34.6009946066
11 59.674528133 34.9021431616
12 49.1488806138 59.8124568806
13 49.9592141228 60.1753013869
14 44.931352029 69.6574772287
15 55.2414017687 74.4286477953
16 45.1332830973 60.3090486358
17 53.8694189177 66.3333643929
18 55.4426852612 61.4539328915
19 46.8558725397 57.437787528
20 53.5897096946 65.298548418
21 50.1414446857 62.2205762416
22 51.1453602078 65.2556645189
EOF
